QPLIB_3385
LCQ
minimize
155 # number of variables
137 # number of constraints
0.0 # default value for linear coefficients in objective
5 # number of non-default linear coefficients in objective
1 1.0
2 1.0
3 1.0
4 1.0
5 1.0
0.0 # objective constant
60 # number of quadratic terms in all constraints
78 41 23 2.0
79 23 1 2.0
80 23 1 2.0
81 23 1 2.0
82 23 1 2.0
83 23 1 2.0
84 23 1 2.0
85 23 1 2.0
86 41 1 2.0
87 162 1 2.0
88 1 1 2.0
89 32344593 1 2.0
90 1 1 2.0
91 1573399417 1 2.0
92 32652 1 2.0
93 1 1 2.0
94 1 1 2.0
95 162 1 2.0
96 1 1 2.0
97 32344593 1 2.0
98 1 1 2.0
99 1573399417 114 2.0
100 32652 1 2.0
101 32344593 1 2.0
102 1 1 2.0
103 1573399417 1 2.0
104 32652 1 2.0
105 1 1 2.0
106 1 1 2.0
107 114 1 2.0
108 1 1 2.0
109 32361361 32344593 2.0
110 1 1 2.0
111 1573399417 66 2.0
112 32652 1 2.0
113 1573399465 1 2.0
114 32652 1 2.0
115 1573399465 1 2.0
116 32652 1 2.0
117 32361361 1 2.0
118 2 1 2.0
119 66 1 2.0
120 157 1 2.0
121 1573399465 1 2.0
122 32652 1 2.0
123 1573399465 32341393 2.0
124 32652 1 2.0
125 305 1 2.0
126 2 1 2.0
127 113 1 2.0
128 157 1 2.0
129 1549488737 1 2.0
130 32652 1 2.0
131 32341393 1 2.0
132 1 1 2.0
133 305 1 2.0
134 1 1 2.0
135 113 1 2.0
136 1 1 2.0
137 1549488737 32338497 2.0
439 # number of linear terms in all constraints
1 6 -1.0
1 7 -1.0
1 8 -1.0
1 9 -1.0
1 10 -1.0
1 11 -1.0
2 12 -1.0
2 13 -1.0
2 14 -1.0
2 15 -1.0
2 16 -1.0
2 17 -1.0
3 18 -1.0
3 19 -1.0
3 20 -1.0
3 21 -1.0
3 22 -1.0
3 23 -1.0
4 1 1.0
4 7 -1.0
4 13 -1.0
4 19 -1.0
4 24 -1.0
4 25 -1.0
4 26 -1.0
4 27 -1.0
4 28 -1.0
5 2 1.0
5 8 -1.0
5 14 -1.0
5 20 -1.0
5 29 -1.0
5 30 -1.0
5 31 -1.0
5 32 -1.0
5 33 -1.0
6 3 1.0
6 9 -1.0
6 15 -1.0
6 21 -1.0
6 34 -1.0
6 35 -1.0
6 36 -1.0
6 37 -1.0
6 38 -1.0
7 4 1.0
7 10 -1.0
7 16 -1.0
7 22 -1.0
7 39 -1.0
7 40 -1.0
7 41 -1.0
7 42 -1.0
7 43 -1.0
8 5 1.0
8 11 -1.0
8 17 -1.0
8 23 -1.0
8 44 -1.0
8 45 -1.0
8 46 -1.0
8 47 -1.0
8 48 -1.0
9 1 1.0
9 24 -1.0
9 29 -1.0
9 34 -1.0
9 39 -1.0
9 44 -1.0
9 49 -1.0
10 2 1.0
10 25 -1.0
10 30 -1.0
10 35 -1.0
10 40 -1.0
10 45 -1.0
10 50 -1.0
11 3 1.0
11 26 -1.0
11 31 -1.0
11 36 -1.0
11 41 -1.0
11 46 -1.0
11 51 -1.0
12 4 1.0
12 27 -1.0
12 32 -1.0
12 37 -1.0
12 42 -1.0
12 47 -1.0
12 52 -1.0
13 5 1.0
13 28 -1.0
13 33 -1.0
13 38 -1.0
13 43 -1.0
13 48 -1.0
13 53 -1.0
14 6 -1.0
14 12 -1.0
14 18 -1.0
14 49 -1.0
14 50 -1.0
14 51 -1.0
14 52 -1.0
14 53 -1.0
14 54 1.0
15 55 -1.0
15 56 -1.0
15 57 -1.0
15 58 -1.0
15 59 -1.0
15 60 -1.0
16 61 -1.0
16 62 -1.0
16 63 -1.0
16 64 -1.0
16 65 -1.0
16 66 -1.0
17 67 -1.0
17 68 -1.0
17 69 -1.0
17 70 -1.0
17 71 -1.0
17 72 -1.0
18 56 -1.0
18 73 960.0
19 57 -1.0
19 74 960.0
20 58 -1.0
20 75 960.0
21 59 -1.0
21 76 960.0
22 60 -1.0
22 77 960.0
23 62 -1.0
23 78 3000.0
24 63 -1.0
24 79 3000.0
25 64 -1.0
25 80 3000.0
26 65 -1.0
26 81 3000.0
27 66 -1.0
27 82 3000.0
28 68 -1.0
28 83 65000.0
29 69 -1.0
29 84 65000.0
30 70 -1.0
30 85 65000.0
31 71 -1.0
31 86 65000.0
32 72 -1.0
32 87 65000.0
33 55 -1.0
33 88 960.0
34 61 -1.0
34 89 3000.0
35 67 -1.0
35 90 65000.0
36 7 -1.0
36 73 80.0
37 8 -1.0
37 74 80.0
38 9 -1.0
38 75 80.0
39 10 -1.0
39 76 80.0
40 11 -1.0
40 77 80.0
41 13 -1.0
41 78 60.0
42 14 -1.0
42 79 60.0
43 15 -1.0
43 80 60.0
44 16 -1.0
44 81 60.0
45 17 -1.0
45 82 60.0
46 19 -1.0
46 83 130.0
47 20 -1.0
47 84 130.0
48 21 -1.0
48 85 130.0
49 22 -1.0
49 86 130.0
50 23 -1.0
50 87 130.0
51 6 -1.0
51 88 80.0
52 12 -1.0
52 89 60.0
53 18 -1.0
53 90 130.0
54 73 1.0
54 74 1.0
54 75 1.0
54 76 1.0
54 77 1.0
54 88 1.0
55 78 1.0
55 79 1.0
55 80 1.0
55 81 1.0
55 82 1.0
55 89 1.0
56 83 1.0
56 84 1.0
56 85 1.0
56 86 1.0
56 87 1.0
56 90 1.0
57 1 -400.0
57 56 1.0
57 62 1.0
57 68 1.0
57 91 1.0
57 92 1.0
57 93 1.0
57 94 1.0
57 95 1.0
58 2 -100.0
58 57 1.0
58 63 1.0
58 69 1.0
58 96 1.0
58 97 1.0
58 98 1.0
58 99 1.0
58 100 1.0
59 3 -50.0
59 58 1.0
59 64 1.0
59 70 1.0
59 101 1.0
59 102 1.0
59 103 1.0
59 104 1.0
59 105 1.0
60 4 -570.0
60 59 1.0
60 65 1.0
60 71 1.0
60 106 1.0
60 107 1.0
60 108 1.0
60 109 1.0
60 110 1.0
61 5 -100.0
61 60 1.0
61 66 1.0
61 72 1.0
61 111 1.0
61 112 1.0
61 113 1.0
61 114 1.0
61 115 1.0
62 56 0.9
62 62 0.9
62 68 0.9
62 91 0.9
62 92 0.9
62 93 0.9
62 94 0.9
62 95 0.9
62 116 -1.0
63 57 0.6
63 63 0.6
63 69 0.6
63 96 0.6
63 97 0.6
63 98 0.6
63 99 0.6
63 100 0.6
63 117 -1.0
64 58 0.15
64 64 0.15
64 70 0.15
64 101 0.15
64 102 0.15
64 103 0.15
64 104 0.15
64 105 0.15
64 118 -1.0
65 59 0.26
65 65 0.26
65 71 0.26
65 106 0.26
65 107 0.26
65 108 0.26
65 109 0.26
65 110 0.26
65 119 -1.0
66 60 0.1
66 66 0.1
66 72 0.1
66 111 0.1
66 112 0.1
66 113 0.1
66 114 0.1
66 115 0.1
66 120 -1.0
67 91 -1.0
67 96 -1.0
67 101 -1.0
67 106 -1.0
67 111 -1.0
67 116 1.0
67 121 -1.0
68 92 -1.0
68 97 -1.0
68 102 -1.0
68 107 -1.0
68 112 -1.0
68 117 1.0
68 122 -1.0
69 93 -1.0
69 98 -1.0
69 103 -1.0
69 108 -1.0
69 113 -1.0
69 118 1.0
69 123 -1.0
70 94 -1.0
70 99 -1.0
70 104 -1.0
70 109 -1.0
70 114 -1.0
70 119 1.0
70 124 -1.0
71 95 -1.0
71 100 -1.0
71 105 -1.0
71 110 -1.0
71 115 -1.0
71 120 1.0
71 125 -1.0
72 126 1.0
72 127 1.0
72 128 1.0
72 129 1.0
72 130 1.0
72 131 1.0
73 132 1.0
73 133 1.0
73 134 1.0
73 135 1.0
73 136 1.0
73 137 1.0
74 138 1.0
74 139 1.0
74 140 1.0
74 141 1.0
74 142 1.0
74 143 1.0
75 144 1.0
75 145 1.0
75 146 1.0
75 147 1.0
75 148 1.0
75 149 1.0
76 150 1.0
76 151 1.0
76 152 1.0
76 153 1.0
76 154 1.0
76 155 1.0
77 54 -2.0
77 55 1.0
77 61 1.0
77 67 1.0
77 121 1.0
77 122 1.0
77 123 1.0
77 124 1.0
77 125 1.0
78 91 -1.0
79 96 -1.0
80 101 -1.0
81 106 -1.0
82 111 -1.0
83 92 -1.0
84 97 -1.0
85 102 -1.0
86 107 -1.0
87 112 -1.0
88 93 -1.0
89 98 -1.0
90 103 -1.0
91 108 -1.0
92 113 -1.0
93 94 -1.0
94 99 -1.0
95 104 -1.0
96 109 -1.0
97 114 -1.0
98 95 -1.0
99 100 -1.0
100 105 -1.0
101 110 -1.0
102 115 -1.0
103 121 -1.0
104 122 -1.0
105 123 -1.0
106 124 -1.0
107 125 -1.0
108 24 -1.0
109 29 -1.0
110 34 -1.0
111 39 -1.0
112 44 -1.0
113 25 -1.0
114 30 -1.0
115 35 -1.0
116 40 -1.0
117 45 -1.0
118 26 -1.0
119 31 -1.0
120 36 -1.0
121 41 -1.0
122 46 -1.0
123 27 -1.0
124 32 -1.0
125 37 -1.0
126 42 -1.0
127 47 -1.0
128 28 -1.0
129 33 -1.0
130 38 -1.0
131 43 -1.0
132 48 -1.0
133 49 -1.0
134 50 -1.0
135 51 -1.0
136 52 -1.0
137 53 -1.0
1.79769313486232E+308 # value for infinity
0.0 # default left-hand-side value
20 # number of non-default left-hand-sides
1 -80.0
2 -60.0
3 -130.0
15 -960.0
16 -3000.0
17 -65000.0
54 1.0
55 1.0
56 1.0
57 -1.79769313486232E+308
58 -1.79769313486232E+308
59 -1.79769313486232E+308
60 -1.79769313486232E+308
61 -1.79769313486232E+308
72 1.0
73 1.0
74 1.0
75 1.0
76 1.0
77 -1.79769313486232E+308
0.0 # default right-hand-side value
14 # number of non-default right-hand-sides
1 -80.0
2 -60.0
3 -130.0
15 -960.0
16 -3000.0
17 -65000.0
54 1.0
55 1.0
56 1.0
72 1.0
73 1.0
74 1.0
75 1.0
76 1.0
0.0 # default variable lower bound value
0 # number of non-default variable lower bounds
1000000.0 # default variable upper bound value
0 # number of non-default variable upper bounds
0.0 # default variable primal value in starting point
0 # number of non-default variable primal values in starting point
0.0 # default constraint dual value in starting point
0 # number of non-default constraint dual values in starting point
0.0 # default variable bound dual value in starting point
0 # number of non-default variable bound dual values in starting point
0 # number of non-default variable names
0 # number of non-default constraint names
